formal_verification/runs/model_eval_v7_100/case_083/run/model/design_smt2.smt2
; SMT-LIBv2 description generated by Yosys 0.64+40 (git sha1 90b906c4f, clang++ 18.1.8 -fPIC -O3)
; yosys-smt2-module vert_formal_wrap
(declare-sort |vert_formal_wrap_s| 0)
(declare-fun |vert_formal_wrap_is| (|vert_formal_wrap_s|) Bool)
; yosys-smt2-witness {"offset": 0, "path": ["$auto$async2sync.cc:107:execute$115"], "smtname": 0, "smtoffset": 0, "type": "reg", "width": 1}
(declare-fun |vert_formal_wrap#0| (|vert_formal_wrap_s|) (_ BitVec 1)) ; $auto$async2sync.cc:107:execute$115
; yosys-smt2-register $auto$async2sync.cc:107:execute$115 1
(define-fun |vert_formal_wrap_n $auto$async2sync.cc:107:execute$115| ((state |vert_formal_wrap_s|)) Bool (= ((_ extract 0 0) (|vert_formal_wrap#0| state)) #b1))
; yosys-smt2-witness {"offset": 0, "path": ["\\_started"], "smtname": 1, "smtoffset": 0, "type": "reg", "width": 1}
(declare-fun |vert_formal_wrap#1| (|vert_formal_wrap_s|) (_ BitVec 1)) ; \_started
; yosys-smt2-register _started 1
; yosys-smt2-wire _started 1
(define-fun |vert_formal_wrap_n _started| ((state |vert_formal_wrap_s|)) Bool (= ((_ extract 0 0) (|vert_formal_wrap#1| state)) #b1))
; yosys-smt2-wire auth_10 32
(define-fun |vert_formal_wrap_n auth_10| ((state |vert_formal_wrap_s|)) (_ BitVec 32) #b00000000000000000000000000000000)
; yosys-smt2-wire auth_11 32
(define-fun |vert_formal_wrap_n auth_11| ((state |vert_formal_wrap_s|)) (_ BitVec 32) #b00000000000000000000000000000000)
; yosys-smt2-wire auth_7 32
(define-fun |vert_formal_wrap_n auth_7| ((state |vert_formal_wrap_s|)) (_ BitVec 32) #b00000000000000000000000000000000)
; yosys-smt2-wire b0x01x 32
(define-fun |vert_formal_wrap_n b0x01x| ((state |vert_formal_wrap_s|)) (_ BitVec 32) #b00000000000000000000000000000000)
; yosys-smt2-wire b0xx1xx 32
(define-fun |vert_formal_wrap_n b0xx1xx| ((state |vert_formal_wrap_s|)) (_ BitVec 32) #b00000000000000000000000000000000)
; yosys-smt2-wire bx1x1 32
(define-fun |vert_formal_wrap_n bx1x1| ((state |vert_formal_wrap_s|)) (_ BitVec 32) #b00000000000000000000000000000000)
; yosys-smt2-wire clk_2 32
(define-fun |vert_formal_wrap_n clk_2| ((state |vert_formal_wrap_s|)) (_ BitVec 32) #b00000000000000000000000000000000)
; yosys-smt2-anyseq vert_formal_wrap#2 1 $auto$setundef.cc:350:execute$158
; yosys-smt2-witness {"offset": 0, "path": ["\\clk_gen_8"], "smtname": 2, "smtoffset": 0, "type": "seq", "width": 1}
(declare-fun |vert_formal_wrap#2| (|vert_formal_wrap_s|) (_ BitVec 1)) ; \clk_gen_8
; yosys-smt2-wire clk_gen_8 1
; yosys-smt2-clock clk_gen_8 posedge
(define-fun |vert_formal_wrap_n clk_gen_8| ((state |vert_formal_wrap_s|)) Bool (= ((_ extract 0 0) (|vert_formal_wrap#2| state)) #b1))
; yosys-smt2-wire core_13 32
(define-fun |vert_formal_wrap_n core_13| ((state |vert_formal_wrap_s|)) (_ BitVec 32) #b00000000000000000000000000000000)
; yosys-smt2-wire data_6 32
(define-fun |vert_formal_wrap_n data_6| ((state |vert_formal_wrap_s|)) (_ BitVec 32) #b00000000000000000000000000000000)
; yosys-smt2-wire data_buffer_15 32
(define-fun |vert_formal_wrap_n data_buffer_15| ((state |vert_formal_wrap_s|)) (_ BitVec 32) #b00000000000000000000000000000000)
; yosys-smt2-wire err_4 32
(define-fun |vert_formal_wrap_n err_4| ((state |vert_formal_wrap_s|)) (_ BitVec 32) #b00000000000000000000000000000000)
; yosys-smt2-wire fsm_18 32
(define-fun |vert_formal_wrap_n fsm_18| ((state |vert_formal_wrap_s|)) (_ BitVec 32) #b00000000000000000000000000000000)
; yosys-smt2-wire rst 1
(define-fun |vert_formal_wrap_n rst| ((state |vert_formal_wrap_s|)) Bool false)
; yosys-smt2-wire rst_18 32
(define-fun |vert_formal_wrap_n rst_18| ((state |vert_formal_wrap_s|)) (_ BitVec 32) #b00000000000000000000000000000000)
; yosys-smt2-wire rx_5 32
(define-fun |vert_formal_wrap_n rx_5| ((state |vert_formal_wrap_s|)) (_ BitVec 32) #b00000000000000000000000000000000)
; yosys-smt2-wire sig_2 32
(define-fun |vert_formal_wrap_n sig_2| ((state |vert_formal_wrap_s|)) (_ BitVec 32) #b00000000000000000000000000000000)
; yosys-smt2-wire sig_5 32
(define-fun |vert_formal_wrap_n sig_5| ((state |vert_formal_wrap_s|)) (_ BitVec 32) #b00000000000000000000000000000000)
; yosys-smt2-wire tx_1 32
(define-fun |vert_formal_wrap_n tx_1| ((state |vert_formal_wrap_s|)) (_ BitVec 32) #b00000000000000000000000000000000)
; yosys-smt2-wire tx_19 32
(define-fun |vert_formal_wrap_n tx_19| ((state |vert_formal_wrap_s|)) (_ BitVec 32) #b00000000000000000000000000000000)
(define-fun |vert_formal_wrap#3| ((state |vert_formal_wrap_s|)) (_ BitVec 1) (bvnot (|vert_formal_wrap#2| state))) ; $auto$rtlil.cc:3255:Not$161
; yosys-smt2-assume 0 $auto$formalff.cc:987:execute$162
(define-fun |vert_formal_wrap_u 0| ((state |vert_formal_wrap_s|)) Bool (or (= ((_ extract 0 0) (|vert_formal_wrap#3| state)) #b1) (not true))) ; $auto$formalff.cc:987:execute$162
; yosys-smt2-assert 0 _witness_.check_assert_vert_formal_wrap_sv_92_5 vert_formal_wrap.sv:92.7-92.115
(define-fun |vert_formal_wrap_a 0| ((state |vert_formal_wrap_s|)) Bool (or true (not (= ((_ extract 0 0) (|vert_formal_wrap#0| state)) #b1)))) ; _witness_.check_assert_vert_formal_wrap_sv_92_5
; yosys-smt2-assert 1 _witness_.check_assert_vert_formal_wrap_sv_93_14 vert_formal_wrap.sv:93.5-93.111
(define-fun |vert_formal_wrap_a 1| ((state |vert_formal_wrap_s|)) Bool (or true (not (= ((_ extract 0 0) (|vert_formal_wrap#0| state)) #b1)))) ; _witness_.check_assert_vert_formal_wrap_sv_93_14
; yosys-smt2-assert 2 _witness_.check_assert_vert_formal_wrap_sv_94_23 vert_formal_wrap.sv:94.5-94.111
(define-fun |vert_formal_wrap_a 2| ((state |vert_formal_wrap_s|)) Bool (or true (not (= ((_ extract 0 0) (|vert_formal_wrap#0| state)) #b1)))) ; _witness_.check_assert_vert_formal_wrap_sv_94_23
; yosys-smt2-assert 3 _witness_.check_assert_vert_formal_wrap_sv_95_32 vert_formal_wrap.sv:95.5-95.175
(define-fun |vert_formal_wrap_a 3| ((state |vert_formal_wrap_s|)) Bool (or true (not (= ((_ extract 0 0) (|vert_formal_wrap#0| state)) #b1)))) ; _witness_.check_assert_vert_formal_wrap_sv_95_32
(define-fun |vert_formal_wrap#4| ((state |vert_formal_wrap_s|)) (_ BitVec 1) (ite (= ((_ extract 0 0) (|vert_formal_wrap#1| state)) #b1) #b1 #b0)) ; $assert$vert_formal_wrap.sv:92$5_EN
; yosys-smt2-assume 1 _witness_.check_assume_vert_formal_wrap_sv_91_3 vert_formal_wrap.sv:91.5-91.18
(define-fun |vert_formal_wrap_u 1| ((state |vert_formal_wrap_s|)) Bool (or true (not (= ((_ extract 0 0) (|vert_formal_wrap#4| state)) #b1)))) ; _witness_.check_assume_vert_formal_wrap_sv_91_3
(define-fun |vert_formal_wrap_a| ((state |vert_formal_wrap_s|)) Bool (and
  (|vert_formal_wrap_a 0| state)
  (|vert_formal_wrap_a 1| state)
  (|vert_formal_wrap_a 2| state)
  (|vert_formal_wrap_a 3| state)
))
(define-fun |vert_formal_wrap_u| ((state |vert_formal_wrap_s|)) Bool (and
  (|vert_formal_wrap_u 0| state)
  (|vert_formal_wrap_u 1| state)
))
(define-fun |vert_formal_wrap_i| ((state |vert_formal_wrap_s|)) Bool (and
  (= (= ((_ extract 0 0) (|vert_formal_wrap#0| state)) #b1) false) ; $auto$async2sync.cc:107:execute$115
  (= (= ((_ extract 0 0) (|vert_formal_wrap#1| state)) #b1) false) ; _started
))
(define-fun |vert_formal_wrap_h| ((state |vert_formal_wrap_s|)) Bool true)
(define-fun |vert_formal_wrap_t| ((state |vert_formal_wrap_s|) (next_state |vert_formal_wrap_s|)) Bool (and
  (= #b1 (|vert_formal_wrap#1| next_state)) ; $procdff$102 \_started
  (= (|vert_formal_wrap#4| state) (|vert_formal_wrap#0| next_state)) ; $auto$async2sync.cc:110:execute$117 $auto$async2sync.cc:107:execute$115
)) ; end of module vert_formal_wrap
; yosys-smt2-topmod vert_formal_wrap
; end of yosys output
